outputs/case_125.model.txt
internal_control_system_established = True
internal_control_system_executed = True
internal_handling_system_established = True
internal_handling_system_executed = True
related_entity_report_failure = False
internal_handling_established = True
internal_handling_compliance = True
uncooperative_response = False
financial_disclosure_compliance = True
internal_handling_violation = False
internal_control_executed = True
related_party_other_transaction_limit_followed = True
related_entity_failed_to_provide_documents = False
applicant_truthful_disclosure = True
document_concealment = False
internal_control_compliance = True
internal_handling_executed = True
internal_control_established = True
concealed_or_destroyed_documents = False
loan_limit_compliance = True
timely_report_compliance = True
refused_inspection_or_opening = False
internal_control_violation = False
uncooperative_or_false_response = False
inspection_refusal = False
related_party_transaction_compliance = True
loan_and_transaction_limit_followed = True
financial_disclosure_provided_and_true = True
contract_insurance_truthful = True
late_or_false_financial_report = False
penalty = False
late_or_false_report = False
timely_report_and_disclosure = True